0000000000000000
0000000000000000
0111100000000000
0000110000000000
0000011000000000
0000001100000000
0000001110000000
0000011011000000
0000110001100000
0001100000110000
0011000000011000
0110000000001100
0000000000000110
0000000000000000
0000000000000000
0000000000000000